
Gurobi 11.0.1 (win64) logging started Thu May 16 19:23:07 2024

Set parameter LogFile to value "output/solver_log21.txt"
Gurobi Optimizer version 11.0.1 build v11.0.1rc0 (win64 - Windows 11.0 (22631.2))

CPU model: 11th Gen Intel(R) Core(TM) i7-1165G7 @ 2.80GHz, instruction set [SSE2|AVX|AVX2|AVX512]
Thread count: 4 physical cores, 8 logical processors, using up to 8 threads

Optimize a model with 5535 rows, 1452 columns and 103333 nonzeros
Model fingerprint: 0xc6fd1d4e
Variable types: 568 continuous, 884 integer (884 binary)
Coefficient statistics:
  Matrix range     [4e-01, 1e+05]
  Objective range  [1e+00, 1e+02]
  Bounds range     [1e+00, 1e+00]
  RHS range        [1e-02, 1e+05]

User MIP start produced solution with objective 94105.3 (0.01s)
User MIP start produced solution with objective 94105.3 (0.01s)
Loaded user MIP start with objective 94105.3

Presolve removed 889 rows and 455 columns
Presolve time: 0.12s
Presolved: 4646 rows, 997 columns, 88379 nonzeros
Variable types: 534 continuous, 463 integer (458 binary)

Root relaxation: objective 9.469407e+04, 1233 iterations, 0.08 seconds (0.14 work units)

    Nodes    |    Current Node    |     Objective Bounds      |     Work
 Expl Unexpl |  Obj  Depth IntInf | Incumbent    BestBd   Gap | It/Node Time

     0     0 94694.0674    0   11 94105.2830 94694.0674  0.63%     -    0s
     0     0 94168.5154    0   11 94105.2830 94168.5154  0.07%     -    0s
     0     0 94168.5154    0    9 94105.2830 94168.5154  0.07%     -    0s
     0     0 94168.5154    0   10 94105.2830 94168.5154  0.07%     -    0s
     0     0 94168.5154    0    2 94105.2830 94168.5154  0.07%     -    0s
     0     0 94168.5154    0    2 94105.2830 94168.5154  0.07%     -    1s
     0     2 94168.5154    0    2 94105.2830 94168.5154  0.07%     -    1s

Explored 7 nodes (3533 simplex iterations) in 1.60 seconds (1.64 work units)
Thread count was 8 (of 8 available processors)

Solution count 2: 94105.3 94105.3 

Optimal solution found (tolerance 1.00e-04)
Best objective 9.410528299505e+04, best bound 9.410528299505e+04, gap 0.0000%
